c File: data_files/evolved_graphs/g3653.col
c
c Auto generated graph
c
p edge 100 881
e 1 8
e 1 23
e 1 30
e 1 31
e 1 35
e 1 37
e 1 40
e 1 46
e 1 50
e 1 68
e 1 69
e 1 70
e 1 71
e 1 72
e 1 74
e 1 84
e 1 92
e 1 94
e 1 95
e 1 100
e 2 3
e 2 5
e 2 7
e 2 9
e 2 11
e 2 19
e 2 23
e 2 27
e 2 28
e 2 31
e 2 38
e 2 40
e 2 41
e 2 42
e 2 43
e 2 50
e 2 53
e 2 63
e 2 66
e 2 67
e 2 69
e 2 70
e 2 71
e 2 73
e 2 74
e 2 79
e 2 94
e 3 7
e 3 11
e 3 12
e 3 16
e 3 17
e 3 22
e 3 27
e 3 42
e 3 43
e 3 44
e 3 50
e 3 57
e 3 62
e 3 63
e 3 66
e 3 67
e 3 68
e 3 71
e 3 74
e 4 5
e 4 9
e 4 17
e 4 31
e 4 38
e 4 43
e 4 57
e 4 66
e 4 68
e 4 70
e 4 71
e 4 73
e 4 74
e 4 79
e 4 81
e 5 17
e 5 23
e 5 33
e 5 37
e 5 43
e 5 48
e 5 53
e 5 55
e 5 57
e 5 58
e 5 61
e 5 64
e 5 66
e 5 67
e 5 68
e 5 69
e 5 70
e 5 72
e 5 78
e 6 8
e 6 32
e 6 43
e 6 50
e 6 51
e 6 55
e 6 61
e 6 65
e 6 66
e 6 67
e 6 70
e 6 71
e 6 73
e 6 74
e 6 86
e 6 88
e 7 9
e 7 14
e 7 20
e 7 21
e 7 24
e 7 25
e 7 27
e 7 31
e 7 32
e 7 39
e 7 45
e 7 46
e 7 48
e 7 53
e 7 57
e 7 70
e 7 71
e 7 72
e 7 74
e 7 91
e 8 20
e 8 28
e 8 31
e 8 33
e 8 43
e 8 55
e 8 57
e 8 59
e 8 64
e 8 65
e 8 66
e 8 67
e 8 68
e 8 70
e 8 74
e 9 11
e 9 15
e 9 18
e 9 34
e 9 35
e 9 40
e 9 44
e 9 45
e 9 46
e 9 50
e 9 54
e 9 55
e 9 57
e 9 63
e 9 67
e 9 68
e 9 69
e 9 70
e 9 72
e 9 73
e 9 74
e 9 91
e 10 15
e 10 32
e 10 33
e 10 51
e 10 58
e 10 69
e 10 72
e 10 73
e 10 74
e 10 81
e 11 13
e 11 18
e 11 22
e 11 27
e 11 36
e 11 37
e 11 43
e 11 47
e 11 54
e 11 63
e 11 66
e 11 67
e 11 71
e 11 72
e 11 73
e 11 75
e 11 91
e 12 16
e 12 18
e 12 21
e 12 24
e 12 25
e 12 36
e 12 37
e 12 52
e 12 54
e 12 56
e 12 61
e 12 62
e 12 64
e 12 66
e 12 71
e 12 72
e 12 74
e 12 75
e 12 100
e 13 21
e 13 29
e 13 36
e 13 44
e 13 55
e 13 61
e 13 66
e 13 67
e 13 68
e 13 71
e 13 72
e 13 74
e 13 95
e 13 98
e 14 15
e 14 18
e 14 30
e 14 39
e 14 54
e 14 55
e 14 56
e 14 59
e 14 60
e 14 62
e 14 64
e 14 66
e 14 71
e 14 72
e 14 73
e 14 74
e 14 88
e 14 92
e 15 36
e 15 41
e 15 45
e 15 49
e 15 50
e 15 51
e 15 54
e 15 57
e 15 59
e 15 61
e 15 64
e 15 66
e 15 67
e 15 68
e 15 69
e 15 71
e 15 72
e 15 73
e 15 74
e 15 84
e 16 22
e 16 32
e 16 35
e 16 37
e 16 42
e 16 46
e 16 47
e 16 49
e 16 53
e 16 55
e 16 62
e 16 69
e 16 71
e 16 72
e 16 73
e 17 24
e 17 34
e 17 44
e 17 45
e 17 51
e 17 60
e 17 61
e 17 69
e 17 71
e 17 73
e 17 77
e 17 85
e 17 87
e 18 22
e 18 24
e 18 27
e 18 29
e 18 30
e 18 31
e 18 48
e 18 49
e 18 51
e 18 59
e 18 61
e 18 62
e 18 65
e 18 67
e 18 68
e 18 69
e 19 22
e 19 23
e 19 24
e 19 26
e 19 27
e 19 37
e 19 38
e 19 41
e 19 61
e 19 66
e 19 68
e 19 69
e 19 70
e 19 72
e 19 73
e 19 74
e 19 89
e 20 22
e 20 23
e 20 31
e 20 34
e 20 36
e 20 39
e 20 48
e 20 54
e 20 59
e 20 60
e 20 66
e 20 68
e 20 70
e 20 72
e 20 74
e 21 27
e 21 28
e 21 29
e 21 31
e 21 45
e 21 47
e 21 48
e 21 54
e 21 67
e 21 69
e 21 70
e 21 72
e 21 74
e 21 90
e 21 93
e 22 28
e 22 29
e 22 45
e 22 49
e 22 50
e 22 51
e 22 54
e 22 58
e 22 61
e 22 66
e 22 67
e 22 69
e 22 71
e 22 73
e 23 24
e 23 28
e 23 32
e 23 45
e 23 55
e 23 56
e 23 66
e 23 68
e 23 69
e 23 70
e 23 71
e 23 74
e 23 86
e 23 91
e 23 94
e 24 32
e 24 35
e 24 38
e 24 43
e 24 46
e 24 53
e 24 58
e 24 60
e 24 70
e 24 71
e 24 96
e 25 30
e 25 33
e 25 37
e 25 39
e 25 40
e 25 43
e 25 45
e 25 46
e 25 51
e 25 53
e 25 55
e 25 58
e 25 68
e 25 69
e 25 70
e 25 72
e 25 74
e 26 28
e 26 32
e 26 53
e 26 62
e 26 68
e 26 69
e 26 71
e 26 74
e 26 97
e 27 28
e 27 33
e 27 35
e 27 39
e 27 47
e 27 52
e 27 53
e 27 57
e 27 60
e 27 61
e 27 64
e 27 66
e 27 69
e 27 73
e 27 95
e 28 48
e 28 51
e 28 66
e 28 67
e 28 71
e 28 72
e 28 74
e 28 85
e 28 99
e 29 30
e 29 32
e 29 37
e 29 46
e 29 55
e 29 58
e 29 64
e 29 66
e 29 70
e 29 71
e 29 73
e 30 33
e 30 38
e 30 46
e 30 56
e 30 66
e 30 68
e 30 70
e 30 73
e 30 74
e 30 87
e 30 91
e 30 97
e 31 36
e 31 39
e 31 55
e 31 57
e 31 62
e 31 67
e 31 68
e 31 69
e 31 70
e 31 72
e 31 73
e 31 81
e 32 34
e 32 43
e 32 48
e 32 55
e 32 64
e 32 66
e 32 67
e 32 69
e 32 71
e 32 74
e 32 88
e 32 94
e 32 99
e 33 39
e 33 54
e 33 56
e 33 57
e 33 63
e 33 69
e 33 71
e 33 72
e 33 74
e 33 96
e 34 55
e 34 65
e 34 70
e 34 71
e 34 72
e 34 73
e 34 80
e 35 37
e 35 45
e 35 69
e 35 71
e 35 72
e 35 91
e 36 44
e 36 53
e 36 65
e 36 66
e 36 69
e 36 70
e 36 72
e 36 73
e 36 74
e 36 81
e 37 52
e 37 56
e 37 66
e 37 67
e 37 68
e 37 70
e 37 71
e 37 72
e 37 73
e 37 74
e 37 78
e 37 83
e 38 39
e 38 41
e 38 43
e 38 45
e 38 47
e 38 49
e 38 50
e 38 53
e 38 61
e 38 66
e 38 67
e 38 69
e 38 71
e 38 72
e 38 73
e 38 74
e 39 41
e 39 50
e 39 56
e 39 59
e 39 60
e 39 61
e 39 66
e 39 68
e 39 69
e 39 71
e 39 72
e 39 74
e 40 57
e 40 64
e 40 66
e 40 67
e 40 68
e 40 70
e 40 73
e 40 74
e 40 79
e 40 81
e 40 88
e 41 43
e 41 44
e 41 47
e 41 48
e 41 50
e 41 53
e 41 55
e 41 62
e 41 67
e 41 69
e 41 72
e 41 85
e 42 51
e 42 61
e 42 68
e 42 69
e 42 72
e 42 73
e 42 74
e 42 86
e 43 53
e 43 63
e 43 66
e 43 68
e 43 70
e 43 72
e 43 73
e 43 88
e 44 48
e 44 66
e 44 67
e 44 68
e 44 72
e 44 73
e 44 90
e 44 99
e 45 46
e 45 52
e 45 53
e 45 62
e 45 63
e 45 66
e 45 69
e 45 71
e 45 72
e 45 73
e 45 74
e 45 89
e 45 98
e 46 47
e 46 49
e 46 59
e 46 61
e 46 67
e 46 68
e 46 69
e 46 71
e 46 72
e 46 73
e 47 56
e 47 61
e 47 64
e 47 66
e 47 69
e 47 72
e 47 73
e 47 74
e 48 51
e 48 52
e 48 53
e 48 55
e 48 58
e 48 67
e 48 68
e 48 69
e 48 70
e 48 74
e 48 100
e 49 52
e 49 55
e 49 60
e 49 63
e 49 67
e 49 68
e 49 70
e 49 71
e 49 72
e 49 73
e 49 94
e 50 53
e 50 62
e 50 65
e 50 66
e 50 67
e 50 68
e 50 70
e 50 76
e 51 54
e 51 61
e 51 66
e 51 69
e 51 70
e 51 73
e 51 74
e 51 99
e 52 66
e 52 68
e 52 71
e 52 82
e 52 92
e 52 97
e 52 100
e 53 63
e 53 66
e 53 71
e 53 73
e 53 74
e 53 77
e 54 65
e 54 66
e 54 68
e 54 70
e 54 72
e 54 73
e 54 79
e 54 94
e 55 57
e 55 66
e 55 71
e 55 72
e 55 73
e 55 74
e 55 86
e 56 66
e 56 68
e 56 69
e 56 71
e 56 72
e 56 73
e 56 95
e 56 100
e 57 62
e 57 68
e 57 70
e 57 74
e 57 88
e 57 93
e 58 63
e 58 65
e 58 66
e 58 67
e 58 68
e 58 69
e 58 70
e 58 73
e 58 74
e 58 87
e 58 95
e 59 60
e 59 67
e 59 69
e 59 87
e 59 89
e 60 67
e 60 68
e 60 69
e 60 71
e 60 73
e 60 88
e 61 63
e 61 65
e 61 67
e 61 73
e 61 74
e 61 95
e 62 66
e 62 67
e 62 68
e 62 70
e 62 73
e 62 74
e 63 64
e 63 66
e 63 70
e 63 71
e 63 74
e 63 85
e 64 66
e 64 67
e 64 68
e 64 70
e 65 66
e 65 67
e 65 68
e 65 69
e 65 70
e 65 71
e 65 74
e 65 97
e 66 74
e 66 80
e 66 86
e 66 88
e 66 89
e 66 90
e 66 92
e 66 93
e 66 96
e 66 97
e 66 99
e 67 71
e 67 76
e 67 77
e 67 88
e 67 91
e 67 93
e 67 99
e 68 70
e 68 72
e 68 77
e 69 78
e 69 84
e 69 96
e 69 98
e 69 99
e 70 71
e 70 74
e 70 80
e 70 94
e 70 99
e 71 75
e 71 76
e 71 78
e 71 97
e 71 98
e 72 76
e 72 78
e 72 88
e 72 93
e 72 96
e 72 98
e 72 99
e 73 78
e 73 79
e 73 90
e 74 79
e 74 88
e 74 96
e 74 98
e 75 76
e 75 90
e 75 95
e 76 80
e 76 91
e 76 93
e 76 94
e 76 95
e 76 98
e 77 86
e 77 95
e 77 97
e 77 98
e 78 97
e 78 98
e 79 99
e 81 83
e 81 96
e 81 97
e 82 94
e 83 96
e 83 97
e 83 98
e 84 88
e 84 93
e 85 92
e 85 94
e 85 95
e 86 87
e 86 89
e 86 91
e 86 99
e 86 100
e 87 92
e 87 99
e 87 100
e 88 98
e 89 91
e 89 93
e 90 91
e 90 92
e 90 97
e 91 95
e 92 93
e 92 98
e 93 95
e 94 95
e 95 96
